objective value:                                13601
t_x_4                                               1 	(obj:44)
t_x_7                                               1 	(obj:15)
t_x_11                                              1 	(obj:35)
t_x_12                                              1 	(obj:12)
t_x_19                                              1 	(obj:6)
t_x_21                                              1 	(obj:2)
t_x_22                                              1 	(obj:0)
t_x_24                                              1 	(obj:48)
t_x_25                                              1 	(obj:21)
t_x_28                                              1 	(obj:26)
t_x_32                                              1 	(obj:21)
t_x_35                                              1 	(obj:37)
t_x_36                                              1 	(obj:41)
t_x_38                                              1 	(obj:26)
t_x_43                                              1 	(obj:11)
t_x_44                                              1 	(obj:11)
t_x_45                                              1 	(obj:51)
t_x_46                                              1 	(obj:47)
t_x_47                                              1 	(obj:3)
t_x_50                                              1 	(obj:3)
t_x_53                                              1 	(obj:51)
t_x_58                                              1 	(obj:0)
t_x_59                                              1 	(obj:21)
t_x_62                                              1 	(obj:40)
t_x_64                                              1 	(obj:46)
t_x_66                                              1 	(obj:38)
t_x_67                                              1 	(obj:16)
t_x_69                                              1 	(obj:1)
t_x_70                                              1 	(obj:41)
t_x_72                                              1 	(obj:37)
t_x_75                                              1 	(obj:19)
t_x_78                                              1 	(obj:45)
t_x_80                                              1 	(obj:4)
t_x_83                                              1 	(obj:7)
t_x_84                                              1 	(obj:66)
t_x_85                                              1 	(obj:63)
t_x_87                                              1 	(obj:17)
t_x_88                                              1 	(obj:34)
t_x_89                                              1 	(obj:6)
t_x_91                                              1 	(obj:39)
t_x_92                                              1 	(obj:23)
t_x_93                                              1 	(obj:24)
t_x_94                                              1 	(obj:14)
t_x_95                                              1 	(obj:44)
t_x_96                                              1 	(obj:24)
t_x_97                                              1 	(obj:41)
t_x_100                                             1 	(obj:30)
t_x_106                                             1 	(obj:64)
t_x_110                                             1 	(obj:14)
t_x_113                                             1 	(obj:29)
t_x_116                                             1 	(obj:14)
t_x_120                                             1 	(obj:45)
t_x_121                                             1 	(obj:52)
t_x_123                                             1 	(obj:22)
t_x_130                                             1 	(obj:2)
t_x_132                                             1 	(obj:26)
t_x_136                                             1 	(obj:16)
t_x_142                                             1 	(obj:8)
t_x_143                                             1 	(obj:22)
t_x_147                                             1 	(obj:2)
t_x_155                                             1 	(obj:4)
t_x_157                                             1 	(obj:22)
t_x_158                                             1 	(obj:32)
t_x_162                                             1 	(obj:4)
t_x_165                                             1 	(obj:23)
t_x_167                                             1 	(obj:10)
t_x_169                                             1 	(obj:19)
t_x_171                                             1 	(obj:3)
t_x_172                                             1 	(obj:18)
t_x_173                                             1 	(obj:7)
t_x_176                                             1 	(obj:54)
t_x_178                                             1 	(obj:42)
t_x_179                                             1 	(obj:19)
t_x_186                                             1 	(obj:35)
t_x_190                                             1 	(obj:23)
t_x_191                                             1 	(obj:30)
t_x_197                                             1 	(obj:34)
t_x_202                                             1 	(obj:17)
t_x_205                                             1 	(obj:0)
t_x_215                                             1 	(obj:30)
t_x_222                                             1 	(obj:40)
t_x_225                                             1 	(obj:8)
t_x_226                                             1 	(obj:6)
t_x_228                                             1 	(obj:24)
t_x_230                                             1 	(obj:18)
t_x_231                                             1 	(obj:40)
t_x_232                                             1 	(obj:0)
t_x_233                                             1 	(obj:43)
t_x_236                                             1 	(obj:34)
t_x_240                                             1 	(obj:2)
t_x_241                                             1 	(obj:0)
t_x_244                                             1 	(obj:36)
t_x_247                                             1 	(obj:24)
t_x_248                                             1 	(obj:38)
t_x_253                                             1 	(obj:41)
t_x_259                                             1 	(obj:32)
t_x_264                                             1 	(obj:3)
t_x_272                                             1 	(obj:0)
t_x_274                                             1 	(obj:56)
t_x_276                                             1 	(obj:9)
t_x_277                                             1 	(obj:15)
t_x_284                                             1 	(obj:10)
t_x_285                                             1 	(obj:40)
t_x_286                                             1 	(obj:17)
t_x_289                                             1 	(obj:39)
t_x_296                                             1 	(obj:22)
t_x_305                                             1 	(obj:38)
t_x_308                                             1 	(obj:21)
t_x_309                                             1 	(obj:27)
t_x_322                                             1 	(obj:3)
t_x_327                                             1 	(obj:9)
t_x_329                                             1 	(obj:42)
t_x_340                                             1 	(obj:14)
t_x_346                                             1 	(obj:33)
t_x_347                                             1 	(obj:2)
t_x_349                                             1 	(obj:26)
t_x_353                                             1 	(obj:34)
t_x_354                                             1 	(obj:11)
t_x_355                                             1 	(obj:11)
t_x_356                                             1 	(obj:20)
t_x_359                                             1 	(obj:9)
t_x_366                                             1 	(obj:25)
t_x_369                                             1 	(obj:7)
t_x_372                                             1 	(obj:5)
t_x_380                                             1 	(obj:20)
t_x_381                                             1 	(obj:28)
t_x_387                                             1 	(obj:16)
t_x_390                                             1 	(obj:42)
t_x_392                                             1 	(obj:32)
t_x_393                                             1 	(obj:8)
t_x_395                                             1 	(obj:7)
t_x_396                                             1 	(obj:0)
t_x_404                                             1 	(obj:8)
t_x_412                                             1 	(obj:11)
t_x_415                                             1 	(obj:9)
t_x_418                                             1 	(obj:14)
t_x_419                                             1 	(obj:0)
t_x_427                                             1 	(obj:21)
t_x_429                                             1 	(obj:13)
t_x_430                                             1 	(obj:1)
t_x_432                                             1 	(obj:1)
t_x_433                                             1 	(obj:3)
t_x_434                                             1 	(obj:0)
t_x_435                                             1 	(obj:34)
t_x_436                                             1 	(obj:10)
t_x_439                                             1 	(obj:14)
t_x_442                                             1 	(obj:41)
t_x_448                                             1 	(obj:3)
t_x_452                                             1 	(obj:25)
t_x_453                                             1 	(obj:8)
t_x_454                                             1 	(obj:13)
t_x_459                                             1 	(obj:54)
t_x_469                                             1 	(obj:10)
t_x_472                                             1 	(obj:9)
t_x_476                                             1 	(obj:61)
t_x_478                                             1 	(obj:34)
t_x_479                                             1 	(obj:40)
t_x_480                                             1 	(obj:26)
t_x_481                                             1 	(obj:16)
t_x_484                                             1 	(obj:3)
t_x_485                                             1 	(obj:36)
t_x_486                                             1 	(obj:1)
t_x_489                                             1 	(obj:45)
t_x_492                                             1 	(obj:27)
t_x_500                                             1 	(obj:38)
t_x_503                                             1 	(obj:11)
t_x_509                                             1 	(obj:46)
t_x_510                                             1 	(obj:38)
t_x_516                                             1 	(obj:30)
t_x_520                                             1 	(obj:20)
t_x_524                                             1 	(obj:37)
t_x_526                                             1 	(obj:33)
t_x_528                                             1 	(obj:16)
t_x_533                                             1 	(obj:1)
t_x_535                                             1 	(obj:38)
t_x_536                                             1 	(obj:17)
t_x_539                                             1 	(obj:24)
t_x_548                                             1 	(obj:41)
t_x_550                                             1 	(obj:4)
t_x_552                                             1 	(obj:2)
t_x_556                                             1 	(obj:20)
t_x_558                                             1 	(obj:13)
t_x_562                                             1 	(obj:38)
t_x_563                                             1 	(obj:3)
t_x_571                                             1 	(obj:25)
t_x_573                                             1 	(obj:30)
t_x_574                                             1 	(obj:25)
t_x_575                                             1 	(obj:11)
t_x_579                                             1 	(obj:12)
t_x_582                                             1 	(obj:21)
t_x_585                                             1 	(obj:0)
t_x_591                                             1 	(obj:1)
t_x_604                                             1 	(obj:24)
t_x_607                                             1 	(obj:18)
t_x_612                                             1 	(obj:54)
t_x_613                                             1 	(obj:18)
t_x_618                                             1 	(obj:23)
t_x_620                                             1 	(obj:15)
t_x_622                                             1 	(obj:4)
t_x_627                                             1 	(obj:14)
t_x_628                                             1 	(obj:1)
t_x_636                                             1 	(obj:31)
t_x_637                                             1 	(obj:1)
t_x_644                                             1 	(obj:29)
t_x_648                                             1 	(obj:19)
t_x_650                                             1 	(obj:45)
t_x_652                                             1 	(obj:27)
t_x_653                                             1 	(obj:56)
t_x_656                                             1 	(obj:23)
t_x_658                                             1 	(obj:1)
t_x_659                                             1 	(obj:33)
t_x_662                                             1 	(obj:39)
t_x_669                                             1 	(obj:37)
t_x_672                                             1 	(obj:0)
t_x_681                                             1 	(obj:12)
t_x_686                                             1 	(obj:28)
t_x_687                                             1 	(obj:21)
t_x_689                                             1 	(obj:54)
t_x_694                                             1 	(obj:51)
t_x_696                                             1 	(obj:0)
t_x_704                                             1 	(obj:14)
t_x_706                                             1 	(obj:21)
t_x_712                                             1 	(obj:11)
t_x_719                                             1 	(obj:42)
t_x_728                                             1 	(obj:14)
t_x_729                                             1 	(obj:9)
t_x_733                                             1 	(obj:25)
t_x_736                                             1 	(obj:44)
t_x_744                                             1 	(obj:2)
t_x_746                                             1 	(obj:18)
t_x_747                                             1 	(obj:15)
t_x_748                                             1 	(obj:0)
t_x_752                                             1 	(obj:17)
t_x_756                                             1 	(obj:38)
t_x_758                                             1 	(obj:10)
t_x_759                                             1 	(obj:2)
t_x_766                                             1 	(obj:13)
t_x_767                                             1 	(obj:35)
t_x_771                                             1 	(obj:5)
t_x_772                                             1 	(obj:36)
t_x_779                                             1 	(obj:15)
t_x_780                                             1 	(obj:18)
t_x_785                                             1 	(obj:51)
t_x_787                                             1 	(obj:65)
t_x_788                                             1 	(obj:18)
t_x_798                                             1 	(obj:12)
t_x_801                                             1 	(obj:42)
t_x_804                                             1 	(obj:31)
t_x_819                                             1 	(obj:6)
t_x_820                                             1 	(obj:38)
t_x_824                                             1 	(obj:23)
t_x_826                                             1 	(obj:44)
t_x_834                                             1 	(obj:2)
t_x_839                                             1 	(obj:21)
t_x_842                                             1 	(obj:21)
t_x_849                                             1 	(obj:13)
t_x_852                                             1 	(obj:17)
t_x_857                                             1 	(obj:18)
t_x_864                                             1 	(obj:8)
t_x_865                                             1 	(obj:48)
t_x_867                                             1 	(obj:1)
t_x_871                                             1 	(obj:21)
t_x_872                                             1 	(obj:2)
t_x_875                                             1 	(obj:16)
t_x_876                                             1 	(obj:1)
t_x_877                                             1 	(obj:22)
t_x_880                                             1 	(obj:96)
t_x_883                                             1 	(obj:1)
t_x_885                                             1 	(obj:20)
t_x_886                                             1 	(obj:37)
t_x_888                                             1 	(obj:41)
t_x_889                                             1 	(obj:26)
t_x_893                                             1 	(obj:59)
t_x_896                                             1 	(obj:8)
t_x_898                                             1 	(obj:46)
t_x_900                                             1 	(obj:5)
t_x_904                                             1 	(obj:9)
t_x_908                                             1 	(obj:30)
t_x_911                                             1 	(obj:31)
t_x_912                                             1 	(obj:10)
t_x_913                                             1 	(obj:27)
t_x_915                                             1 	(obj:14)
t_x_921                                             1 	(obj:35)
t_x_926                                             1 	(obj:8)
t_x_933                                             1 	(obj:45)
t_x_935                                             1 	(obj:50)
t_x_949                                             1 	(obj:5)
t_x_950                                             1 	(obj:5)
t_x_951                                             1 	(obj:51)
t_x_959                                             1 	(obj:0)
t_x_960                                             1 	(obj:20)
t_x_963                                             1 	(obj:31)
t_x_964                                             1 	(obj:46)
t_x_965                                             1 	(obj:20)
t_x_966                                             1 	(obj:18)
t_x_967                                             1 	(obj:37)
t_x_972                                             1 	(obj:32)
t_x_976                                             1 	(obj:15)
t_x_978                                             1 	(obj:27)
t_x_984                                             1 	(obj:2)
t_x_985                                             1 	(obj:7)
t_x_994                                             1 	(obj:13)
t_x_995                                             1 	(obj:22)
t_x_996                                             1 	(obj:30)
t_x_999                                             1 	(obj:0)
t_x_1003                                            1 	(obj:21)
t_x_1005                                            1 	(obj:23)
t_x_1006                                            1 	(obj:3)
t_x_1009                                            1 	(obj:14)
t_x_1013                                            1 	(obj:31)
t_x_1019                                            1 	(obj:23)
t_x_1021                                            1 	(obj:58)
t_x_1023                                            1 	(obj:18)
t_x_1026                                            1 	(obj:21)
t_x_1027                                            1 	(obj:14)
t_x_1028                                            1 	(obj:5)
t_x_1029                                            1 	(obj:56)
t_x_1033                                            1 	(obj:44)
t_x_1035                                            1 	(obj:75)
t_x_1042                                            1 	(obj:26)
t_x_1044                                            1 	(obj:37)
t_x_1045                                            1 	(obj:16)
t_x_1047                                            1 	(obj:21)
t_x_1056                                            1 	(obj:1)
t_x_1060                                            1 	(obj:16)
t_x_1061                                            1 	(obj:23)
t_x_1064                                            1 	(obj:0)
t_x_1081                                            1 	(obj:25)
t_x_1084                                            1 	(obj:11)
t_x_1091                                            1 	(obj:17)
t_x_1101                                            1 	(obj:18)
t_x_1102                                            1 	(obj:32)
t_x_1104                                            1 	(obj:14)
t_x_1106                                            1 	(obj:9)
t_x_1107                                            1 	(obj:17)
t_x_1118                                            1 	(obj:1)
t_x_1122                                            1 	(obj:32)
t_x_1129                                            1 	(obj:26)
t_x_1132                                            1 	(obj:9)
t_x_1143                                            1 	(obj:3)
t_x_1146                                            1 	(obj:0)
t_x_1151                                            1 	(obj:11)
t_x_1154                                            1 	(obj:2)
t_x_1157                                            1 	(obj:37)
t_x_1161                                            1 	(obj:7)
t_x_1162                                            1 	(obj:36)
t_x_1164                                            1 	(obj:37)
t_x_1171                                            1 	(obj:13)
t_x_1176                                            1 	(obj:31)
t_x_1178                                            1 	(obj:10)
t_x_1184                                            1 	(obj:49)
t_x_1186                                            1 	(obj:29)
t_x_1187                                            1 	(obj:46)
t_x_1188                                            1 	(obj:8)
t_x_1190                                            1 	(obj:39)
t_x_1192                                            1 	(obj:6)
t_x_1196                                            1 	(obj:17)
t_x_1197                                            1 	(obj:28)
t_x_1200                                            1 	(obj:7)
t_x_1204                                            1 	(obj:5)
t_x_1205                                            1 	(obj:18)
t_x_1206                                            1 	(obj:24)
t_x_1208                                            1 	(obj:0)
t_x_1209                                            1 	(obj:5)
t_x_1213                                            1 	(obj:10)
t_x_1214                                            1 	(obj:4)
t_x_1222                                            1 	(obj:11)
t_x_1223                                            1 	(obj:12)
t_x_1226                                            1 	(obj:46)
t_x_1227                                            1 	(obj:46)
t_x_1229                                            1 	(obj:17)
t_x_1232                                            1 	(obj:31)
t_x_1236                                            1 	(obj:55)
t_x_1245                                            1 	(obj:44)
t_x_1246                                            1 	(obj:15)
t_x_1247                                            1 	(obj:49)
t_x_1250                                            1 	(obj:26)
t_x_1251                                            1 	(obj:3)
t_x_1257                                            1 	(obj:19)
t_x_1258                                            1 	(obj:25)
t_x_1263                                            1 	(obj:8)
t_x_1265                                            1 	(obj:2)
t_x_1266                                            1 	(obj:17)
t_x_1269                                            1 	(obj:12)
t_x_1274                                            1 	(obj:11)
t_x_1279                                            1 	(obj:8)
t_x_1283                                            1 	(obj:32)
t_x_1284                                            1 	(obj:9)
t_x_1285                                            1 	(obj:8)
t_x_1286                                            1 	(obj:12)
t_x_1291                                            1 	(obj:6)
t_x_1294                                            1 	(obj:7)
t_x_1298                                            1 	(obj:30)
t_x_1299                                            1 	(obj:28)
t_x_1300                                            1 	(obj:6)
t_x_1303                                            1 	(obj:0)
t_x_1306                                            1 	(obj:4)
t_x_1311                                            1 	(obj:16)
t_x_1315                                            1 	(obj:35)
t_x_1318                                            1 	(obj:26)
t_x_1320                                            1 	(obj:61)
t_x_1325                                            1 	(obj:20)
t_x_1326                                            1 	(obj:35)
t_x_1328                                            1 	(obj:5)
t_x_1331                                            1 	(obj:2)
t_x_1332                                            1 	(obj:56)
t_x_1334                                            1 	(obj:30)
t_x_1338                                            1 	(obj:11)
t_x_1346                                            1 	(obj:65)
t_x_1348                                            1 	(obj:0)
t_x_1349                                            1 	(obj:81)
t_x_1351                                            1 	(obj:30)
t_x_1352                                            1 	(obj:21)
t_x_1354                                            1 	(obj:7)
t_x_1355                                            1 	(obj:40)
t_x_1360                                            1 	(obj:61)
t_x_1363                                            1 	(obj:16)
t_x_1367                                            1 	(obj:20)
t_x_1369                                            1 	(obj:6)
t_x_1373                                            1 	(obj:51)
t_x_1379                                            1 	(obj:8)
t_x_1380                                            1 	(obj:34)
t_x_1383                                            1 	(obj:27)
t_x_1384                                            1 	(obj:14)
t_x_1386                                            1 	(obj:18)
t_x_1389                                            1 	(obj:9)
t_x_1391                                            1 	(obj:8)
t_x_1392                                            1 	(obj:6)
t_x_1395                                            1 	(obj:0)
t_x_1396                                            1 	(obj:41)
t_x_1399                                            1 	(obj:73)
t_x_1400                                            1 	(obj:36)
t_x_1405                                            1 	(obj:18)
t_x_1407                                            1 	(obj:25)
t_x_1410                                            1 	(obj:5)
t_x_1413                                            1 	(obj:1)
t_x_1417                                            1 	(obj:20)
t_x_1418                                            1 	(obj:13)
t_x_1419                                            1 	(obj:28)
t_x_1424                                            1 	(obj:14)
t_x_1425                                            1 	(obj:16)
t_x_1432                                            1 	(obj:27)
t_x_1436                                            1 	(obj:6)
t_x_1438                                            1 	(obj:33)
t_x_1441                                            1 	(obj:41)
t_x_1444                                            1 	(obj:26)
t_x_1446                                            1 	(obj:47)
t_x_1448                                            1 	(obj:21)
t_x_1451                                            1 	(obj:49)
t_x_1453                                            1 	(obj:13)
t_x_1456                                            1 	(obj:54)
t_x_1458                                            1 	(obj:4)
t_x_1460                                            1 	(obj:8)
t_x_1463                                            1 	(obj:22)
t_x_1466                                            1 	(obj:3)
t_x_1467                                            1 	(obj:56)
t_x_1470                                            1 	(obj:3)
t_x_1471                                            1 	(obj:6)
t_x_1473                                            1 	(obj:3)
t_x_1481                                            1 	(obj:3)
t_x_1484                                            1 	(obj:42)
t_x_1487                                            1 	(obj:16)
t_x_1488                                            1 	(obj:2)
t_x_1490                                            1 	(obj:3)
t_x_1494                                            1 	(obj:97)
t_x_1495                                            1 	(obj:20)
t_x_1497                                            1 	(obj:45)
t_x_1502                                            1 	(obj:7)
t_x_1507                                            1 	(obj:17)
t_x_1516                                            1 	(obj:8)
t_x_1518                                            1 	(obj:2)
t_x_1519                                            1 	(obj:2)
t_x_1526                                            1 	(obj:20)
t_x_1529                                            1 	(obj:32)
t_x_1530                                            1 	(obj:46)
t_x_1531                                            1 	(obj:9)
t_x_1534                                            1 	(obj:11)
t_x_1536                                            1 	(obj:44)
t_x_1538                                            1 	(obj:9)
t_x_1541                                            1 	(obj:13)
t_x_1543                                            1 	(obj:12)
t_x_1546                                            1 	(obj:25)
t_x_1550                                            1 	(obj:27)
t_x_1552                                            1 	(obj:30)
t_x_1554                                            1 	(obj:35)
t_x_1556                                            1 	(obj:5)
t_x_1557                                            1 	(obj:12)
t_x_1558                                            1 	(obj:0)
t_x_1559                                            1 	(obj:17)
t_x_1560                                            1 	(obj:47)
t_x_1561                                            1 	(obj:11)
t_x_1563                                            1 	(obj:11)
t_x_1564                                            1 	(obj:3)
t_x_1570                                            1 	(obj:10)
t_x_1571                                            1 	(obj:23)
t_x_1572                                            1 	(obj:7)
t_x_1573                                            1 	(obj:9)
t_x_1576                                            1 	(obj:34)
t_x_1579                                            1 	(obj:39)
t_x_1581                                            1 	(obj:12)
t_x_1583                                            1 	(obj:56)
t_x_1589                                            1 	(obj:3)
t_x_1590                                            1 	(obj:17)
t_x_1593                                            1 	(obj:48)
t_x_1594                                            1 	(obj:1)
t_x_1598                                            1 	(obj:2)
t_x_1601                                            1 	(obj:13)
t_x_1602                                            1 	(obj:27)
t_x_1604                                            1 	(obj:54)
t_x_1606                                            1 	(obj:42)
t_x_1609                                            1 	(obj:23)
t_x_1612                                            1 	(obj:19)
t_x_1613                                            1 	(obj:0)
t_x_1616                                            1 	(obj:42)
t_x_1618                                            1 	(obj:6)
t_x_1622                                            1 	(obj:15)
t_x_1626                                            1 	(obj:5)
t_x_1627                                            1 	(obj:13)
t_x_1631                                            1 	(obj:40)
t_x_1632                                            1 	(obj:43)
t_x_1634                                            1 	(obj:10)
t_x_1640                                            1 	(obj:5)
t_x_1642                                            1 	(obj:12)
t_x_1645                                            1 	(obj:7)
t_x_1650                                            1 	(obj:13)
t_x_1653                                            1 	(obj:1)
t_x_1656                                            1 	(obj:29)
t_x_1658                                            1 	(obj:43)
t_x_1662                                            1 	(obj:9)
t_x_1664                                            1 	(obj:2)
t_x_1666                                            1 	(obj:4)
t_x_1667                                            1 	(obj:13)
t_x_1681                                            1 	(obj:2)
t_x_1685                                            1 	(obj:28)
t_x_1689                                            1 	(obj:30)
t_x_1690                                            1 	(obj:15)
t_x_1691                                            1 	(obj:1)
t_x_1693                                            1 	(obj:25)
t_x_1697                                            1 	(obj:1)
t_x_1704                                            1 	(obj:13)
t_x_1710                                            1 	(obj:51)
t_x_1714                                            1 	(obj:17)
t_x_1725                                            1 	(obj:10)
t_x_1734                                            1 	(obj:9)
t_x_1735                                            1 	(obj:6)
t_x_1736                                            1 	(obj:13)
t_x_1744                                            1 	(obj:9)
t_x_1748                                            1 	(obj:23)
t_x_1750                                            1 	(obj:82)
t_x_1751                                            1 	(obj:29)
t_x_1758                                            1 	(obj:39)
t_x_1759                                            1 	(obj:9)
t_x_1761                                            1 	(obj:29)
t_x_1762                                            1 	(obj:22)
t_x_1763                                            1 	(obj:16)
t_x_1778                                            1 	(obj:0)
t_x_1779                                            1 	(obj:13)
t_x_1782                                            1 	(obj:33)
t_x_1790                                            1 	(obj:77)
t_x_1793                                            1 	(obj:30)
t_x_1795                                            1 	(obj:13)
t_x_1800                                            1 	(obj:29)
t_x_1801                                            1 	(obj:12)
t_x_1804                                            1 	(obj:2)
t_x_1807                                            1 	(obj:5)
t_x_1808                                            1 	(obj:22)
t_x_1810                                            1 	(obj:4)
t_x_1814                                            1 	(obj:1)
t_x_1819                                            1 	(obj:24)
t_x_1820                                            1 	(obj:25)
t_x_1824                                            1 	(obj:1)
t_x_1837                                            1 	(obj:23)
t_x_1838                                            1 	(obj:17)
t_x_1839                                            1 	(obj:9)
t_x_1840                                            1 	(obj:26)
t_x_1841                                            1 	(obj:36)
t_x_1842                                            1 	(obj:11)
t_x_1846                                            1 	(obj:39)
t_x_1848                                            1 	(obj:5)
t_x_1854                                            1 	(obj:18)
t_x_1855                                            1 	(obj:0)
t_x_1861                                            1 	(obj:32)
t_x_1862                                            1 	(obj:17)
t_x_1869                                            1 	(obj:10)
t_x_1871                                            1 	(obj:9)
t_x_1876                                            1 	(obj:10)
t_x_1878                                            1 	(obj:6)
t_x_1882                                            1 	(obj:59)
t_x_1886                                            1 	(obj:14)
t_x_1887                                            1 	(obj:8)
t_x_1889                                            1 	(obj:9)
t_x_1890                                            1 	(obj:84)
t_x_1892                                            1 	(obj:1)
t_x_1893                                            1 	(obj:19)
t_x_1898                                            1 	(obj:2)
t_x_1900                                            1 	(obj:12)
t_x_1901                                            1 	(obj:8)
t_x_1904                                            1 	(obj:39)
t_x_1905                                            1 	(obj:13)
t_x_1908                                            1 	(obj:19)
t_x_1909                                            1 	(obj:21)
t_x_1916                                            1 	(obj:30)
t_x_1924                                            1 	(obj:5)
t_x_1926                                            1 	(obj:49)
t_x_1927                                            1 	(obj:44)
t_x_1928                                            1 	(obj:11)
t_x_1930                                            1 	(obj:8)
t_x_1936                                            1 	(obj:2)
t_x_1938                                            1 	(obj:3)
t_x_1940                                            1 	(obj:21)
t_x_1943                                            1 	(obj:22)
t_x_1944                                            1 	(obj:25)
t_x_1945                                            1 	(obj:67)
t_x_1950                                            1 	(obj:10)
t_x_1954                                            1 	(obj:19)
t_x_1957                                            1 	(obj:10)
t_x_1967                                            1 	(obj:18)
t_x_1970                                            1 	(obj:2)
t_x_1977                                            1 	(obj:2)
t_x_1982                                            1 	(obj:46)
t_x_1985                                            1 	(obj:24)
t_x_1987                                            1 	(obj:7)
t_x_1988                                            1 	(obj:26)
t_x_1989                                            1 	(obj:12)
t_x_1992                                            1 	(obj:55)
t_x_1994                                            1 	(obj:13)
t_x_1995                                            1 	(obj:53)
